NAME : A-n37-k5.486240.tour
COMMENT : Length = 486240
COMMENT : Found by LKH [Keld Helsgaun] Sun Dec 17 18:35:16 2017
TYPE : TOUR
DIMENSION : 41
TOUR_SECTION
1
4
26
36
19
39
22
17
8
5
34
6
7
38
2
13
18
15
24
25
10
9
28
12
41
23
14
11
3
20
21
40
16
35
37
30
33
29
32
27
31
-1
EOF
